CMPL model generation - running

CMPL version: 1.11.0
Authors: Thomas Schleiff, Mike Steglich
Distributed under the GPLv3 

create model instance ...
write model instance ...
CMPL model generation - finished

Solver - running


Welcome to IBM(R) ILOG(R) CPLEX(R) Interactive Optimizer 12.7.1.0
  with Simplex, Mixed Integer & Barrier Optimizers
5725-A06 5725-A29 5724-Y48 5724-Y49 5724-Y54 5724-Y55 5655-Y21
Copyright IBM Corp. 1988, 2017.  All Rights Reserved.

Type 'help' for a list of available commands.
Type 'help' followed by a command name for more
information on commands.

CPLEX> Specified objective sense: MINIMIZE
Selected objective  name:  line[1]
Selected RHS        name:  RHS
Selected bound      name:  BOUND
Problem '/tmp/cmpl.T15191.mps' read.
Read time = 0.05 sec. (8.25 ticks)
CPLEX> CPXPARAM_Read_APIEncoding                        "UTF-8"
Tried aggregator 3 times.
MIP Presolve eliminated 18393 rows and 29028 columns.
MIP Presolve modified 590 coefficients.
Aggregator did 1411 substitutions.
Reduced MIP has 2551 rows, 4154 columns, and 12162 nonzeros.
Reduced MIP has 3986 binaries, 0 generals, 0 SOSs, and 0 indicators.
Presolve time = 0.05 sec. (45.20 ticks)
Found incumbent of value 3796.598723 after 0.11 sec. (95.03 ticks)
Probing time = 0.01 sec. (2.66 ticks)
Tried aggregator 2 times.
MIP Presolve eliminated 2 rows and 50 columns.
MIP Presolve modified 6 coefficients.
Aggregator did 1 substitutions.
Reduced MIP has 2548 rows, 4103 columns, and 12055 nonzeros.
Reduced MIP has 4103 binaries, 0 generals, 0 SOSs, and 0 indicators.
Presolve time = 0.02 sec. (14.72 ticks)
Probing time = 0.01 sec. (2.82 ticks)
Clique table members: 3535.
MIP emphasis: balance optimality and feasibility.
MIP search method: dynamic search.
Parallel mode: none, using 1 thread.
Root relaxation solution time = 0.02 sec. (15.99 ticks)

        Nodes                                         Cuts/
   Node  Left     Objective  IInf  Best Integer    Best Bound    ItCnt     Gap

*     0+    0                         3796.5987        0.0000           100.00%
*     0     0      integral     0     1748.1908     1748.1908     1080    0.00%
Elapsed time = 0.17 sec. (139.55 ticks, tree = 0.00 MB, solutions = 2)

Root node processing (before b&c):
  Real time             =    0.17 sec. (140.83 ticks)
Sequential b&c:
  Real time             =    0.00 sec. (0.00 ticks)
                          ------------
Total (root+branch&cut) =    0.17 sec. (140.83 ticks)

Solution pool: 2 solutions saved.

MIP - Integer optimal solution:  Objective =  1.7481907940e+03
Solution time =    0.17 sec.  Iterations = 1080  Nodes = 0
Deterministic time = 140.93 ticks  (835.93 ticks/sec)

CPLEX> Incumbent solution written to file '/tmp/cmpl.T15191.gsol'.
CPLEX> 
CMPL: Time used for model generation: 0 seconds
CMPL: Time used for solving the model: 1 seconds


Solution written to ASCII file: results/output_generated/2017-04-03-4/fair-nonlinear.sol

Solver - finished
